BAYES
5
2 2 2 2 2
5
4 3 4 2 0
5 4 2 3 0 1
1 2
3 4 2 3
2 2 4

16
0.40 0.60 0.53 0.47 0.13 0.87 0.27 0.73 0.13 0.87 0.80 0.20 0.13 0.87 0.73 0.27

32
0.87 0.13 0.60 0.40 1.00 0.00 0.93 0.07 0.47 0.53 0.27 0.73 0.07 0.93 0.40 0.60 0.07 0.93 0.53 0.47 0.87 0.13 0.53 0.47 0.47 0.53 0.13 0.87 0.67 0.33 0.67 0.33

2
0.60 0.40

8
0.00 1.00 0.07 0.93 0.20 0.80 0.60 0.40

4
0.40 0.60 0.07 0.93

